WARNING: for repeatability, setting FPU to use double precision
============================[ Problem Statistics ]=============================
|                                                                             |
|  Number of variables:            50                                         |
|  Number of clauses:             218                                         |
|  Parse time:                   0.00 s                                       |
|                                                                             |
============================[ Search Statistics ]==============================
| Conflicts |          ORIGINAL         |          LEARNT          | Progress |
|           |    Vars  Clauses Literals |    Limit  Clauses Lit/Cl |          |
===============================================================================
===============================================================================
restarts              : 1
conflicts             : 59             (40000 /sec)
decisions             : 66             (0.00 % random) (44746 /sec)
propagations          : 884            (599322 /sec)
conflict literals     : 188            (22.31 % deleted)
Memory used           : 20.00 MB
CPU time              : 0.001475 s

UNSATISFIABLE
